/*********************************************
 * OPL 12.6.0.0 Data
 * Author: Adrian Rodriguez Bazaga, Pau Rodriguez Esmerats
 * Creation Date: 06/12/2017 at 23:02:57
 *********************************************/

nNurses=149;
maxConsec=2;
maxPresence=7;
maxHours=5;
minHours=1;
hours=24;
demand= [23 27 40 39 27 40 39 29 31 18 2 3 3 4 5 2 4 2 3 1 19 39 22 27  ];
